2821 4259
4553 5882
2252 9825
5866 773
3196 4074
1543 233
4979 3208
4647 5547
96 6440
9463 610
462 3736
1623 9888
6102 6428
9271 7463
1421 9579
9407 2814
3618 2851
2868 1972
6607 575
6169 5450
3866 8917
5012 9897
9857 4191
232 7642
7578 3042
3775 7115
2369 5317
8738 8820
9806 2608
9713 586
4925 1194
9137 8859
1594 3212
3995 3548
3470 8135
2947 52
9110 698
2310 7595
2352 6487
2352 3613
684 7335
7429 3065
3448 1200
3428 3952
9746 3636
4611 4506
4105 7782
797 176
2983 4788
8243 2171
